VER
4

OBJSENSE
MIN

VAR
11 1
F 11

CON
38 3
SVECQRE 21
SVECPSD 10
L= 7

OBJACOORD
1
0 1.0

ACOORD
64
0 0 1.0
1 1 1.0
2 2 1.0
3 3 1.0
4 4 1.0
5 5 1.0
6 6 1.0
7 7 1.0
8 8 1.0
9 9 1.0
10 10 1.0
11 1 1.0
12 2 1.0
13 3 1.0
16 6 1.0
19 9 1.0
20 10 1.0
21 1 1.0
22 2 1.0
23 3 1.0
24 4 1.0
25 5 1.0
26 6 1.0
27 7 1.0
28 8 1.0
29 9 1.0
30 10 1.0
31 1 1.0
32 3 1.0
33 6 1.0
34 1 0.25
34 2 0.3535533905932738
34 3 0.25
34 4 0.3535533905932738
34 5 0.3535533905932738
34 6 0.25
34 7 0.3535533905932738
34 8 0.3535533905932738
34 9 0.3535533905932738
34 10 0.25
35 1 0.25
35 2 -0.3535533905932738
35 3 0.25
35 4 0.3535533905932738
35 5 -0.3535533905932738
35 6 0.25
35 7 -0.3535533905932738
35 8 0.3535533905932738
35 9 -0.3535533905932738
35 10 0.25
36 1 0.25
36 2 0.3535533905932738
36 3 0.25
36 4 -0.3535533905932738
36 5 -0.3535533905932738
36 6 0.25
36 7 -0.3535533905932738
36 8 -0.3535533905932738
36 9 0.3535533905932738
36 10 0.25
37 1 1.0
37 3 1.0
37 6 1.0
37 10 1.0

BCOORD
7
31 0.4875
32 0.012500000000000011
33 0.012500000000000011
34 0.4875
35 0.012499999999999997
36 0.012499999999999997
37 1.0
